p wcnf 182 364 365 
1 66 -169 0 
1 -174 -171 0 
1 -79 39 0 
1 -63 115 0 
1 142 50 0 
1 108 88 0 
1 -110 87 0 
1 -151 139 0 
1 115 -137 0 
1 78 79 0 
1 -121 54 0 
1 -29 -157 0 
1 35 -177 0 
1 -141 -116 0 
1 -155 127 0 
1 -32 66 0 
1 69 -91 0 
1 87 -120 0 
1 -30 -69 0 
1 -127 -143 0 
1 64 -17 0 
1 55 167 0 
1 58 -155 0 
1 -139 -81 0 
1 87 -52 0 
1 176 5 0 
1 -100 176 0 
1 -180 48 0 
1 39 99 0 
1 -102 41 0 
1 -36 27 0 
1 -75 12 0 
1 69 142 0 
1 -70 134 0 
1 -76 118 0 
1 -167 -131 0 
1 140 -145 0 
1 -101 88 0 
1 40 141 0 
1 -100 -66 0 
1 -173 58 0 
1 -116 -57 0 
1 -62 -42 0 
1 168 -81 0 
1 -49 56 0 
1 19 -133 0 
1 179 87 0 
1 112 -126 0 
1 62 147 0 
1 -141 -82 0 
1 130 -58 0 
1 178 72 0 
1 178 71 0 
1 -68 87 0 
1 116 3 0 
1 178 37 0 
1 -29 -49 0 
1 96 -49 0 
1 -24 -101 0 
1 -50 120 0 
1 -109 -101 0 
1 -57 140 0 
1 -62 169 0 
1 -82 -41 0 
1 -153 18 0 
1 -30 178 0 
1 -75 -127 0 
1 149 -124 0 
1 -57 -82 0 
1 57 -133 0 
1 100 -11 0 
1 -18 -170 0 
1 26 123 0 
1 -67 20 0 
1 172 150 0 
1 14 100 0 
1 123 177 0 
1 120 -104 0 
1 83 -98 0 
1 21 84 0 
1 103 150 0 
1 -4 -35 0 
1 -178 175 0 
1 78 108 0 
1 -101 -2 0 
1 -176 -105 0 
1 -91 143 0 
1 54 102 0 
1 36 20 0 
1 -149 24 0 
1 103 164 0 
1 -174 36 0 
1 53 -153 0 
1 -79 165 0 
1 92 -166 0 
1 90 -182 0 
1 -110 -17 0 
1 96 167 0 
1 -153 -171 0 
1 -133 34 0 
1 117 126 0 
1 109 128 0 
1 93 97 0 
1 102 -10 0 
1 -141 58 0 
1 -155 -81 0 
1 113 1 0 
1 170 162 0 
1 3 -139 0 
1 30 -48 0 
1 -117 -91 0 
1 103 13 0 
1 -32 -44 0 
1 57 -21 0 
1 -180 -136 0 
1 -45 -89 0 
1 176 -122 0 
1 11 -99 0 
1 -58 -20 0 
1 -31 -114 0 
1 -167 115 0 
1 14 -135 0 
1 -18 -104 0 
1 52 116 0 
1 -68 -55 0 
1 -157 125 0 
1 -10 -66 0 
1 -38 -174 0 
1 -54 -149 0 
1 95 -155 0 
1 182 165 0 
1 63 141 0 
1 -140 13 0 
1 -72 92 0 
1 146 29 0 
1 156 -174 0 
1 128 79 0 
1 142 -26 0 
1 93 -19 0 
1 161 68 0 
1 -36 -13 0 
1 -94 -22 0 
1 -78 -132 0 
1 109 -93 0 
1 -89 137 0 
1 -153 -145 0 
1 5 -116 0 
1 4 82 0 
1 49 -113 0 
1 -120 -42 0 
1 168 160 0 
1 74 -126 0 
1 -162 -172 0 
1 87 9 0 
1 -56 140 0 
1 -154 105 0 
1 -173 120 0 
1 -47 -51 0 
1 -108 -178 0 
1 53 -47 0 
1 -7 62 0 
1 149 166 0 
1 -125 -54 0 
1 -157 27 0 
1 102 -78 0 
1 6 -63 0 
1 -122 -81 0 
1 66 69 0 
1 31 42 0 
1 -34 -166 0 
1 -17 -46 0 
1 -38 114 0 
1 -127 -147 0 
1 175 -40 0 
1 4 95 0 
1 -75 106 0 
1 110 136 0 
1 -100 63 0 
1 -37 -31 0 
1 32 83 0 
1 -40 82 0 
1 103 -115 0 
1 -42 138 0 
1 -148 -67 0 
1 142 -36 0 
1 117 25 0 
1 41 -62 0 
1 -171 174 0 
1 147 -59 0 
1 7 -128 0 
1 -17 -95 0 
1 -89 -94 0 
1 -148 165 0 
1 -46 -61 0 
1 -110 -165 0 
1 -123 -89 0 
1 -149 179 0 
1 -93 81 0 
1 117 38 0 
1 -178 -47 0 
1 162 -139 0 
1 95 131 0 
1 81 -147 0 
1 129 15 0 
1 -81 153 0 
1 -91 69 0 
1 -117 -102 0 
1 113 44 0 
1 154 -117 0 
1 175 138 0 
1 36 34 0 
1 -2 160 0 
1 142 -155 0 
1 45 -148 0 
1 10 97 0 
1 -86 1 0 
1 48 97 0 
1 -4 161 0 
1 94 8 0 
1 171 -38 0 
1 -171 -133 0 
1 -87 -151 0 
1 99 -72 0 
1 -58 -87 0 
1 148 -61 0 
1 -11 148 0 
1 -164 -94 0 
1 -101 -100 0 
1 -116 -143 0 
1 133 92 0 
1 2 -42 0 
1 -113 -135 0 
1 117 150 0 
1 -131 -61 0 
1 82 69 0 
1 -86 10 0 
1 123 -128 0 
1 -76 -102 0 
1 57 -134 0 
1 143 51 0 
1 122 46 0 
1 130 126 0 
1 80 -73 0 
1 51 -11 0 
1 -110 -119 0 
1 36 -62 0 
1 128 -80 0 
1 18 164 0 
1 -102 -87 0 
1 -32 -24 0 
1 -180 -115 0 
1 -177 116 0 
1 -72 25 0 
1 -179 -143 0 
1 58 -99 0 
1 20 -159 0 
1 -138 -85 0 
1 127 -72 0 
1 -105 115 0 
1 -68 82 0 
1 -152 146 0 
1 -107 -60 0 
1 41 110 0 
1 -158 89 0 
1 -75 -50 0 
1 -166 -84 0 
1 -99 -119 0 
1 57 -142 0 
1 -171 -114 0 
1 -85 112 0 
1 -94 -58 0 
1 121 -37 0 
1 46 -52 0 
1 88 -176 0 
1 -167 152 0 
1 69 -85 0 
1 136 166 0 
1 88 -40 0 
1 -110 -118 0 
1 -132 44 0 
1 -60 -9 0 
1 -171 129 0 
1 82 152 0 
1 44 169 0 
1 -20 150 0 
1 170 -145 0 
1 36 -27 0 
1 -7 -179 0 
1 82 -142 0 
1 150 -46 0 
1 68 144 0 
1 -29 156 0 
1 13 -153 0 
1 -41 66 0 
1 -91 87 0 
1 13 92 0 
1 66 38 0 
1 -92 -104 0 
1 24 158 0 
1 -112 41 0 
1 64 -49 0 
1 105 -82 0 
1 162 172 0 
1 70 45 0 
1 -65 175 0 
1 136 -131 0 
1 -118 -6 0 
1 -157 -172 0 
1 110 -3 0 
1 150 166 0 
1 -39 -82 0 
1 63 -121 0 
1 -21 53 0 
1 -3 36 0 
1 86 -171 0 
1 161 -141 0 
1 -133 139 0 
1 -59 -14 0 
1 11 81 0 
1 178 116 0 
1 100 -30 0 
1 -150 -13 0 
1 -20 -140 0 
1 102 -160 0 
1 -94 135 0 
1 159 -52 0 
1 -17 125 0 
1 121 66 0 
1 7 127 0 
1 72 26 0 
1 59 -171 0 
1 26 -153 0 
1 103 -87 0 
1 -50 -52 0 
1 -150 -131 0 
1 68 56 0 
1 -67 -60 0 
1 -131 -101 0 
1 -104 -56 0 
1 -47 17 0 
1 150 -42 0 
1 -68 137 0 
1 72 -95 0 
1 101 -48 0 
1 20 -26 0 
1 -123 83 0 
1 112 76 0 
1 145 164 0 
1 43 122 0 
1 62 20 0 
1 174 -151 0 
1 -70 -71 0 
1 74 27 0 
1 45 -131 0 
1 38 148 0 
1 115 10 0 
1 -4 180 0 
1 -148 -115 0 
1 -152 69 0 
1 -93 166 0 
1 -148 -142 0 
1 110 177 0 
1 112 -32 0 
1 -149 153 0 
